;; sequence(s): A129370
;; terms: 0 1 4 8 16 21 36 40 64 65 100 96 144 133 196 176 256 225 324 280
;; small program: ((x div (1 + (x mod 2))) + x) * (x - (x div 2))
;; fast program: (x * x) - ((x mod 2) * loop(x * x, 1, x div 2))
(set-logic UFNIA)
(declare-fun small (Int) Int)
(declare-fun f0 (Int) Int)
(declare-fun g0 () Int)
(declare-fun h0 (Int) Int)
(declare-fun u0 (Int Int) Int)
(declare-fun v0 (Int) Int)
(declare-fun fast (Int) Int)
(assert (forall ((x Int)) (= (small x) (* (+ (div x (+ 1 (mod x 2))) x) (- x (div x 2))))))
(assert (forall ((x Int)) (= (f0 x) (* x x))))
(assert (= g0 1))
(assert (forall ((x Int)) (= (h0 x) (div x 2))))
(assert (forall ((x Int) (y Int)) (= (u0 x y) (ite (<= x 0) y (f0 (u0 (- x 1) y))))))
(assert (forall ((x Int)) (= (v0 x) (u0 g0 (h0 x)))))
(assert (forall ((x Int)) (= (fast x) (- (* x x) (* (mod x 2) (v0 x))))))
(assert (exists ((c Int)) (and (>= c 0) (not (= (small c) (fast c))))))
(check-sat)
